c SAT Generator for power-law distributed variable frequencies
c -g u -v 20 -c 91 -k 3 -p 2.750000 -b 3.200000 -f /home/schmidt/Devel/ni-kop-sat/data/ensemble/ruf20-91/ruf20-91-114 -u 1 -U 1 -s 2673132922
p cnf 20 91
-11 -16 17 0
8 10 -13 0
-4 9 -10 0
-4 -13 19 0
12 13 20 0
-1 -4 19 0
-2 9 -13 0
-12 -16 20 0
11 -13 18 0
7 9 -11 0
-3 -7 11 0
9 12 -19 0
-1 -7 -15 0
-4 11 14 0
-4 -10 19 0
-11 -14 18 0
1 10 18 0
11 15 -18 0
12 13 -19 0
-14 -15 16 0
-5 17 -20 0
-4 -11 -14 0
8 18 19 0
-3 -7 -16 0
7 12 15 0
1 8 -12 0
11 15 -20 0
-1 -8 19 0
13 14 -16 0
11 -18 19 0
-2 5 20 0
1 3 -6 0
-3 12 -13 0
9 13 20 0
-7 13 -16 0
-3 4 9 0
5 19 -20 0
-1 -6 11 0
3 -6 -14 0
2 -16 19 0
-9 15 19 0
6 7 10 0
2 3 17 0
-4 -12 15 0
-4 -9 15 0
7 15 -20 0
-3 8 19 0
2 9 -14 0
-8 -9 16 0
7 -10 13 0
3 -10 -19 0
5 6 -18 0
-2 15 -17 0
6 -10 20 0
-4 -9 12 0
-7 -9 10 0
4 12 -18 0
-3 6 -9 0
-3 14 15 0
-4 7 -8 0
3 5 -17 0
-3 -4 -17 0
6 7 14 0
3 7 -13 0
-8 -9 -20 0
6 10 12 0
10 16 -19 0
2 10 -13 0
3 -9 15 0
-2 -16 19 0
-3 -5 14 0
7 -11 12 0
-3 -4 13 0
-3 -8 9 0
-2 -10 -20 0
-7 -9 13 0
8 -15 -19 0
-2 4 -20 0
-3 -10 20 0
-1 -4 -20 0
-3 9 17 0
6 7 13 0
-3 -5 -10 0
-3 -6 -20 0
-2 -15 -19 0
11 -17 18 0
4 -5 7 0
-2 -10 18 0
-1 7 15 0
-5 -13 19 0
2 -7 -11 0
